648
Lattice="18.64 0.0 0.0 0.0 18.64 0.0 0.0 0.0 18.64" Properties=species:S:1:pos:R:3:tags:I:1:momenta:R:3:forces:R:3 energy=-449210.4673408263 pbc="T T T"
O       13.48951926       7.83805404      14.39223738        0      -0.31552089       0.22344520      -0.07264880      -0.74722028       0.21988675       2.14822292
H       13.15142890       7.80574294      15.36033740        1       0.06910035      -0.15300722      -0.05139541       0.67917144       0.32378191      -1.76192379
H       13.76739174       6.93533793      14.25970087        1       0.05121723      -0.04948083       0.41054912       0.28099933      -0.69528198      -0.41778889
O        4.07898445       5.90170969      17.78013511        0       1.19275423      -0.03403033       0.17243816      -1.33906412      -0.79507113      -2.39390731
H        4.50644820       5.62858373      18.55359859        1      -0.22136163       0.06516424      -0.10361381       1.15272450      -0.72435033       1.83805847
H        3.92297232       5.04687409      17.27401613        1      -0.06995197       0.06938774      -0.12901492       0.11201534       1.67686081       0.77252460
O        3.30143447       2.58350640      16.69201136        0       0.10614771      -0.15567300       0.26714551      -0.86972409       1.24037218      -0.22590697
H        2.71613555       3.33836409      16.42542152        1       0.00413443      -0.00574028       0.06408158       0.70108688      -0.25688726      -0.49123400
H        2.77388412       2.36806188      17.48077887        1      -0.10547720      -0.02014946      -0.03204861      -0.15342928      -0.87502491       0.54800069
O       15.88756339       9.40028003       1.00223860        0       1.28194582      -0.32347675      -0.19540642       0.83027786      -1.74832654       1.37052393
H       16.18017574      10.30151008       0.95961640        1       0.03610790       0.26171256      -0.37667816       0.41472447       0.70879722       0.17160693
H       16.46388478       8.86930224       1.73185660        1       0.05683345      -0.03477689       0.37371685      -1.30768561       1.09213996      -1.84871328
O        5.99827309      10.49825235      16.46460280        0       0.45208311      -0.11699557       0.54975068       0.55910468       0.04614699      -0.53636849
H        5.51875152      10.45120774      17.28848748        1       0.15045522       0.29441564      -0.06034363      -0.43135017      -0.16227849       0.29281646
H        5.86626533       9.62118543      16.03516465        1      -0.14418325      -0.21293679       0.00866691      -0.21683878       0.21381009       0.35453945
O        3.66760351      14.52046220      13.83608982        0      -0.14868294       0.62497250      -0.43865595       1.89042377       0.82090867       1.81827426
H        4.10588268      15.26586004      14.40250579        1      -0.12793797       0.20436735      -0.16299757      -1.21407437      -1.58961868      -1.59960890
H        2.77585156      14.83024555      13.71016942        1       0.04744999      -0.12065605       0.04136548      -0.81967688       0.40445292      -0.38505620
O       12.28626832       7.07031795       1.50867531        0      -0.19485148      -0.10408228      -0.37688464      -0.94305480       0.77499360      -0.29440609
H       12.37978662       7.80962074       2.12465523        1      -0.10409143       0.30291409      -0.13765840      -0.13611817       0.32745463      -0.20464429
H       13.05465927       6.58013601       1.75490757        1       0.14892175      -0.43197064      -0.00005981       1.24226189      -0.92707765       0.21294244
O       11.38407429      17.25059114      18.36131886        0       0.42833029       0.52195934      -0.42412658      -0.41050673      -0.88651669      -0.34595048
H       11.12436419      16.64663283      17.61357585        1       0.23430400       0.06406187       0.15235861       0.41284052       0.56773585       0.41824597
H       11.16343355      16.74644821       0.52539568        1       0.06055350       0.20301049       0.16396654       0.22939062       0.59879923      -0.16191450
O       16.46795612       4.65370116       0.87150706        0       0.12943901       0.74674601       0.44190151       0.72617996       0.80923909       0.04204158
H       16.67967565       5.55922342       0.55408721        1      -0.06760847      -0.00793256      -0.01785840      -0.54670227      -0.76070952       0.20666920
H       15.50705793       4.46728111       0.69778823        1      -0.00736113      -0.39523852       0.16190312      -0.02995059       0.49773777       0.22718306
O        0.90487724       3.47052024       6.62367726        0       1.02205374       1.22502999      -0.08771918      -0.33315077       2.37857485       0.49256754
H        0.12159577       4.04417837       6.80486209        1       0.02287605      -0.04248924       0.14265707       0.92552423      -0.11471856       0.19928554
H        0.50680441       2.70578209       6.24771141        1       0.08131730      -0.27677403      -0.21229519      -0.55727381      -1.92929637      -0.79031026
O       15.99702928       5.26279231       9.62011798        0      -0.59595999      -0.97269343      -0.69843314       0.11687988       1.10396421       2.50083542
H       15.84795194       5.20530605       8.70904777        1      -0.05900229       0.31696765       0.07746474      -0.44236100      -0.33060074      -2.27069187
H       15.76830227       6.20857042       9.83146731        1      -0.13407690      -0.14131033      -0.22442852       0.20357805      -0.91292953      -0.35735977
O       18.21389282      13.49905061       4.15307807        0      -0.52225209      -0.16211858       0.30654964       1.19941926      -0.31460050      -0.35678864
H       17.88394501      12.59780114       4.02693278        1       0.10385726      -0.29104613       0.25263491      -0.36498746      -0.27230567      -0.15881917
H       17.48571235      14.00832134       4.48433697        1       0.36966831       0.13724583      -0.08157667      -0.76073360       0.36327788       0.46727142
O        1.46615633      16.54552955       7.28457259        0      -0.18456239       0.03926411      -0.46791233       1.10311484      -1.11401820      -0.31584948
H        0.76246632      16.72658443       7.90297804        1      -0.01786710      -0.01409043       0.07482922      -0.45895672      -0.19010559       0.35358703
H        1.91798878      15.64882273       7.48118439        1       0.10316377       0.01330725       0.27900435      -0.79142427       1.52140033       0.01422852
O        3.91498268      16.59201189      11.72177977        0      -0.58041797      -0.13889574       0.47605320      -0.28757548      -0.56659746      -1.41533566
H        3.07116775      16.21853319      11.99873425        1       0.01771774       0.05286995      -0.24016860      -0.10929056       0.37648302       0.44264653
H        4.18337480      17.27152450      12.33885401        1       0.24463853       0.07945165       0.39130292       0.22322299       0.28486764       0.72701126
O        0.64025304       7.43578521       3.28905621        0      -0.93011705      -0.27323535      -0.42586843       0.56093216      -3.23528409      -2.09895802
H        0.98036240       8.26984519       3.50406385        1       0.06316435      -0.23176519       0.03009596       0.86053813       2.36294937       0.65365839
H        1.11505374       7.13000775       2.45485297        1       0.14792594      -0.24895655       0.13612281      -0.91444772       0.75390053       1.74840403
O        8.58063192       7.99294517       3.70794532        0      -0.11317436       0.42878882      -0.30603856       3.45689011      -0.23770511      -0.35299653
H        9.36231335       7.80638650       4.29915602        1      -0.10565051      -0.07314917      -0.26148286      -0.96856821       0.26097500      -0.70159233
H        7.84646881       7.89699894       4.27674297        1       0.02231633       0.08194099      -0.04482821      -2.08822560       0.03823965       1.44788313
O       10.07277967       7.84135542       9.35114042        0       0.44083424      -1.43769841      -0.08354335       0.68124521      -3.01295280       0.10848243
H        9.90661065       6.81264152       9.19876698        1      -0.35740427       0.24043623      -0.20678491       0.18010119       2.75424147       0.26022840
H       10.95406030       7.84731212       9.79883833        1      -0.00344436       0.09210160       0.02662455      -0.91252804       0.05126114      -0.50417161
O        2.02243507       5.02631086      15.51026239        0      -0.66435459      -0.04746982       1.30808129      -0.09010422      -1.05069208      -0.03698677
H        1.75640989       5.92742666      15.74105096        1       0.00783778      -0.05981811      -0.08097536       0.53410447      -0.06161193      -0.21714242
H        2.81882512       4.96957911      14.89953462        1       0.01048001       0.17691709      -0.32562622      -0.45948121       0.80998731       0.27049795
O        9.03575960      17.04067753       6.59704314        0      -1.02079948      -0.62770263      -0.06905603       0.61727190      -0.43379754       0.39623937
H        8.57192728      16.44818058       6.00238094        1       0.03045634       0.11786274       0.17439309      -0.04706915      -0.00943679      -0.26089078
H        9.64782796      16.44882504       7.08696095        1      -0.10406699      -0.05888110       0.04601082      -0.61745584       0.71908092      -0.40805355
O        3.41692860       3.75051990       7.86453371        0      -0.55447365      -0.09518341       0.35122745       2.87338328      -1.46193075      -0.14830515
H        2.60014570       3.64863596       7.41967155        1      -0.12832307       0.16229698      -0.15030703      -1.81416035      -0.07403894      -0.89467931
H        4.02646654       3.03985186       7.42260535        1      -0.03125532       0.06084164      -0.11063031      -1.16902637       1.26168966       1.21365047
O       15.55664264      12.79205969       1.29901136        0       0.21835287      -0.30903821       1.28186311      -0.82051003       0.35908946       0.56087130
H       15.51093585      13.64546295       1.75926615        1      -0.13216325      -0.15692681      -0.13704834      -0.23980691      -0.04328399      -0.04532942
H       16.46627917      12.72995722       1.06603124        1      -0.08943620       0.08848735       0.14906435       1.54483461      -0.45154604      -0.29568145
O        1.66988276      18.21797546       1.89388239        0       0.05731459       0.47538112      -0.31151952       0.08046509       1.23807621      -0.75961608
H        0.78329570      17.88589200       2.08967388        1      -0.22081418       0.20293688       0.32203397      -0.17571864      -0.02955144      -0.22787957
H        1.54131261       0.25449842       1.16713376        1      -0.15510978      -0.02938264       0.26517428       0.05917275      -0.89369190       0.73020780
O        2.37380256       4.80760464       4.52152810        0       0.48867444       0.44283584       0.52236503      -0.17196846      -0.04593008       0.23649704
H        3.16547443       4.25380206       4.39253571        1      -0.13543279      -0.04778889       0.19850640      -0.25405207      -0.05424771       0.04759124
H        1.79079807       4.32739411       5.15283221        1       0.06753322      -0.05215536      -0.15836335       0.31012487      -0.09001193      -0.30426246
O        3.71634381      17.91104977       8.74905005        0      -0.86600951      -0.64552884      -0.16046462      -1.17135644       0.00120399      -0.28260881
H        3.68052148      17.52963136       9.63803829        1       0.04475735       0.16425936      -0.31487286       0.32305068       0.05933967       0.21857737
H        2.78122135      17.82809564       8.43562928        1      -0.13807782      -0.01122547      -0.16641152       1.09864080      -0.08292022       0.10850666
O        0.45605363      15.08501714       1.64009219        0       0.59718349       0.17934388      -0.47257668      -0.98208565      -0.23721562       0.60905123
H        0.12087951      14.21485216       1.37505747        1      -0.00633842       0.32994745      -0.46187051       0.14637539       0.06194709       0.03877152
H       18.48072921      15.29521138       2.38749629        1      -0.27131538      -0.01091861      -0.01845428       0.90194327      -0.10642515      -0.67525232
O       15.31691785       9.43566864      12.88550860        0      -0.01780693       0.94459094       0.31860377       0.64412618      -0.71197820       1.77763534
H       14.85881009       8.96899299      13.64467939        1      -0.43394306       0.11557310      -0.14843508       0.00745855       0.38123783      -1.04129708
H       14.75308749       9.38183754      12.11357438        1       0.03443226       0.07879732       0.03980864      -0.94325680      -0.14936757      -0.58199942
O       15.89795733       0.79262892       0.81471970        0      -0.16547042      -0.06469297       0.53028999      -0.73632646      -0.59225625      -1.08391678
H       16.28845058       1.38812385       1.43580354        1       0.22097732      -0.05928051       0.10371897       0.43408704       0.60124737       0.57679820
H       16.51821271       0.65728513       0.08424985        1      -0.13889643      -0.02873705       0.27128304       0.04092498       0.08195043       0.19206135
O        7.59530033       0.02447065       8.66867320        0      -0.19613414       0.18773841       1.01724480       0.24878061       1.04629302       1.28893268
H        7.08342112      18.38900224       7.93988794        1       0.13742753       0.03773618       0.07951141      -0.77497149      -0.46064973      -1.37079215
H        8.38006387      18.12902258       8.64212382        1      -0.10668172       0.08873845       0.10625542       0.52996719      -0.56992757      -0.08815988
O        9.66500410       4.92224109      18.51923324        0      -0.20868448       0.29511685      -1.04002763      -0.61803669       0.90791881       1.32571459
H        9.38821044       5.69785483       0.45672308        1      -0.17763096       0.30958396      -0.08951598       0.54945916      -0.95546961      -1.17020440
H        9.83710427       5.29238115      17.64231624        1      -0.16573115      -0.10535266      -0.00588094      -0.10950390       0.13476196       0.06231578
O       13.61612991       9.54118148      10.82095330        0       1.87449755       0.07048061       0.91805833      -0.19441310      -2.88251400       1.03211892
H       13.67814545      10.42228215      10.51440911        1       0.32330185      -0.09799676      -0.38952362      -0.82021660       1.81981325      -0.57907951
H       12.75220084       9.24848911      11.22892553        1       0.01400038      -0.05847446      -0.22729321       0.48252833       1.15850210      -0.46688181
O       10.49332987       7.23204247       6.32995284        0      -1.34265272       0.53313706      -0.19882119      -0.46666366      -0.34968668       0.50642103
H       10.97550426       8.02696732       6.14213070        1      -0.00149164       0.10895039      -0.06822652       0.65760660       0.94051415      -0.42395031
H       10.33064114       7.38664574       7.28084861        1      -0.21951558      -0.04927388      -0.04129884      -0.13480732      -0.37104201      -0.37429118
O        2.70048718      13.14168979      16.13324920        0      -1.35625235      -1.10095789       0.59361387       0.02234320      -0.70428020       0.78741074
H        3.50714945      13.06867668      16.66492704        1      -0.01909535      -0.01938253       0.31998011       0.09166623       0.22425333       0.44167423
H        3.02252805      13.58590044      15.34543703        1       0.36982191       0.34160974       0.22449730       0.15330327       0.37439597      -1.10186315
O        6.91963766      10.86490147       5.54754089        0      -0.96076341       0.49477363       0.58683577      -0.65819603      -1.02668214      -0.90916747
H        7.63701070      11.34075765       5.16303820        1      -0.46364342       0.03247209      -0.20350803       0.81645465       0.72886556      -0.27171892
H        6.70076453      11.18684688       6.41193919        1      -0.32606120      -0.01500288       0.09684740       0.02691621       0.60244113       1.04656625
O        8.45028874       7.45437443       1.13903017        0      -0.63582770       0.01201083       0.41522422       0.53880632       0.29763234       1.32181573
H        8.66285043       7.63029401       2.13493906        1       0.13269677      -0.09440679       0.14312257      -0.39340180      -0.47333804      -1.77288604
H        8.81011120       8.20002545       0.62999104        1       0.04235813      -0.27887132      -0.00842923      -0.11901523      -0.23537245       0.12723103
O        8.49454555      16.33066251      16.61846444        0      -0.55167208      -0.46368491       1.31324444       0.06700934      -0.44962537      -1.00323653
H        8.48773238      17.29335266      16.45702467        1       0.03241246       0.17837881      -0.27653394      -0.17547382      -0.50006199       0.49682951
H        8.53446485      16.02484465      17.52001167        1      -0.17855061      -0.10703407       0.14171855      -0.08381949       0.37426835       0.54594147
O        2.75587959       0.74532577      14.30043600        0      -0.16258756      -0.22900504      -0.34724351      -0.14327395       1.33755374       1.87141848
H        2.82122466       1.48421143      14.97457082        1       0.02512328      -0.17117331       0.23277818      -0.53642130      -1.20291972      -0.38732696
H        3.31972806       1.14608149      13.64337464        1       0.03529220      -0.06321638      -0.35125365       0.65403545      -0.06433804      -1.34612787
O       18.38475794      11.72510541       0.46313064        0       0.58835300       0.36537442       0.59378238      -0.21026929      -1.09024513      -1.59972024
H       18.52271730      12.30550375      18.33423463        1      -0.12444565       0.02999123      -0.29470245       0.03430714       0.48067629       0.57092381
H       18.36872138      10.87412819      18.55897523        1      -0.10078932      -0.07052706      -0.41654785       0.13029030       0.67116094       1.03596258
O       17.06473844      10.42975757       8.92314607        0      -0.80025463      -0.02362111      -0.85788011      -0.39834207       0.38372242       1.02106464
H       17.82521225      10.00431484       9.34713198        1      -0.08802348       0.26192258      -0.06063235       0.47034314       0.09329591      -0.14250109
H       16.72840838      10.94469771       9.69261672        1       0.09920612       0.32668934      -0.40069506      -0.10284705      -0.04110068      -0.65327281
O        5.91152001       7.58876244      12.32947135        0      -0.19617916      -0.49688479      -0.02050582       0.44879964       0.08112833      -0.34371388
H        5.96290274       7.94732068      13.21101481        1       0.06531711      -0.10131354       0.08046023       0.26392791       0.38221204       0.73244971
H        5.07709803       7.12765167      12.35463175        1      -0.05845677       0.00427430      -0.12276427      -0.38114578      -0.62119722      -0.43605164
O       18.30219798       7.24603371      14.40135730        0      -0.02486313      -0.35792754      -1.27757527       1.75162339       1.33452213      -0.90815789
H        0.58122983       7.68212976      14.36897215        1      -0.11292517       0.05903357      -0.16682473      -1.41189885      -0.93598986      -0.28508869
H       18.24229672       6.96093278      15.30455403        1       0.14614218      -0.04319009      -0.14939776      -0.36082989      -0.63974071       0.80461335
O       15.22995737      11.96284581      13.43007621        0       0.44678723       0.54542047      -0.91464879       0.36126101       0.57731205       0.70321316
H       15.91195573      12.02409938      14.12880141        1      -0.00288891       0.22070874      -0.15121271      -0.38515332       0.06241640      -0.40082997
H       15.16016094      10.99387629      13.26033521        1       0.23246386       0.21549174       0.04878334       0.13225301      -0.13532895      -0.01064052
O        6.44886442      12.20820126      10.69251438        0      -0.72547729      -0.09114973      -0.31052647      -1.12941194      -1.39266610       0.19603772
H        7.23206715      12.62197910      11.05385878        1       0.04699286      -0.40377779       0.06441825       0.70276511       0.41471261       0.22044186
H        6.29547528      11.38768720      11.21462497        1      -0.09372660       0.09014909       0.23555952       0.19905962       0.86250341      -0.43592381
O        5.66282395      11.59932134      13.97638352        0       1.05841096      -0.41724749      -0.14390985       0.06512671       0.14984235      -0.59246683
H        6.41451745      11.02008138      13.81669414        1       0.09339250      -0.23186390      -0.15147513       0.44577259      -0.38480407      -0.77658474
H        5.65743686      11.54919100      14.92778641        1      -0.02771670       0.21813675       0.16277208      -0.50755805       0.14867544       1.11556149
O       12.64929460       1.92474065      15.52050545        0      -0.54053117      -0.87522239      -0.28447478      -1.25798404      -1.03450727      -2.29014540
H       12.45775021       1.00108221      15.10300288        1      -0.08320903       0.24956350       0.15409902       0.80350357       1.93341947       1.43545413
H       13.11159574       1.78811529      16.34647184        1      -0.13224638      -0.19345219      -0.25888359       0.35450965      -0.40112984       0.65594780
O        8.62213166       2.61676119      16.22551028        0      -0.01737129      -0.40041897      -0.84927604      -0.90495217       0.05841270       0.28079814
H        7.70331781       2.94680727      16.33029578        1       0.06851035       0.24454998      -0.04681427       0.31351942      -0.33765242      -0.04981736
H        8.98175406       3.19882295      15.56191292        1       0.12661785       0.23575160       0.04074528       0.45198789       0.24952596      -0.40123090
O       13.91519718       3.12132287       9.94845894        0       0.60034563      -0.59729620       0.07087739      -0.25441271      -0.52938092       0.78139591
H       13.86633347       3.05522536      10.94684465        1      -0.29583060       0.07002093      -0.03923522       0.40900698      -0.00646224      -1.22211933
H       14.40068955       3.93137935       9.73911046        1       0.07860215      -0.04999453      -0.00456363      -0.03103889      -0.02298346       0.13390295
O        3.33968356      10.23583854      12.75693118        0       0.15455742      -0.40396463      -0.44031576      -1.36458325       0.40088683      -0.44379136
H        4.14673297      10.48123790      13.21208882        1       0.02188925      -0.06164141       0.00658691       0.13606764       0.66297722       0.43247887
H        2.57975218      10.85167732      12.99933083        1       0.00675575      -0.08874230       0.09081337       1.19075561      -0.84271324      -0.03769510
O        8.11890028       5.98498495      11.84294142        0      -0.23197350      -0.01670929       0.43659344      -1.43204951       1.03122294       0.51065272
H        7.26728601       6.62710745      11.89956346        1      -0.00083546      -0.06514309       0.11775308       1.79875314      -1.51035488      -0.55945593
H        8.57310267       5.94692609      10.99271816        1       0.11348508      -0.19056628       0.20933251      -0.64707541       0.41509330      -0.14242972
O       16.81873549      12.71059406      16.01717185        0       0.17626539       0.63042752       0.06404047       0.08978070       2.54990387       0.66472220
H       17.42113050      13.38591490      16.45630216        1       0.11641627       0.18917858       0.22426672      -0.78994489      -1.42536807      -0.74607980
H       17.25888559      11.88397086      15.96894630        1       0.04821471       0.38079506      -0.20885360       0.97186631      -1.20045996      -0.01362431
O       13.09799128       8.70591603       7.20547987        0      -0.23643583      -0.08369216      -0.56323204       1.30089593      -0.34454647       0.59203082
H       13.69305442       8.47574313       6.44078184        1       0.12181578       0.14075926       0.03803406      -0.61896777       0.18520145      -0.02780377
H       13.68466295       8.44319995       7.95866316        1       0.12384389       0.22026927       0.31018354      -0.75332141       0.13430744      -0.46132645
O        8.28755557      18.48598810      15.10160417        0      -0.51877353      -0.64262773      -0.63812603      -0.07679750       1.39855003       1.17725527
H        8.86182138      17.99878734      14.52679365        1       0.05158053      -0.12728363      -0.04349018       0.60212111      -1.01399612      -0.89407998
H        8.85300515       0.55486568      15.46792193        1      -0.17378100      -0.04453094      -0.15854134      -0.70323718      -0.11914569      -0.38705489
O       18.61041923       1.09388827      13.52773366        0       0.75197946      -0.30986521       0.39630651      -0.76114964       0.29504877       0.03749727
H        0.11369261       2.04250174      13.71833453        1       0.04167754       0.16174037       0.05875795      -0.05524371       0.04902594       0.18030053
H        0.80469983       0.65845534      13.65555271        1      -0.05859535      -0.18634055      -0.10214633       0.95439118      -0.36962682       0.48589921
O       17.28221763       9.87220132      15.06329609        0       0.39336538       0.31383335       0.93707167       0.97620308       0.17252195      -0.55666155
H       16.42569100      10.00246372      15.49819416        1      -0.10654577      -0.09288496       0.00038755      -0.74060917      -0.41512001      -0.02949481
H       17.29687816       9.07525369      14.50437379        1      -0.12219729       0.24431796       0.16691913      -0.22190677       0.19728108       0.40742981
O       14.40187028      16.80116400      12.82959198        0       0.35215485       0.46507833      -0.28019563      -0.45254797      -0.12787165       1.32083237
H       14.59823261      16.88713143      11.91813655        1      -0.12831194       0.21972692       0.07779626       0.23528174      -0.00948583      -2.03338671
H       15.04172826      17.40065342      13.23693624        1      -0.13754473      -0.04108503      -0.15279901       0.50241476       0.30275050       0.30927569
O       13.55547251       1.70404468      18.03430518        0       0.69410382       0.23386520       0.25855389      -0.18852291      -0.63770795       1.56938171
H       14.32028185       1.28162329      18.52020030        1       0.06000161      -0.06523029      -0.02933860      -0.68895805       0.33348957      -0.52258748
H       12.74101192       1.40589344      18.53527081        1      -0.37158775       0.06585965       0.12802614       1.14023542       0.42456615      -0.38111833
O        7.28539672      13.73684085      12.93778150        0      -0.39223443       0.51401417       0.29864646       1.31878352       0.25600591       0.65755898
H        8.05280584      13.48331581      13.51919469        1      -0.04233688       0.28428428      -0.06909314      -0.74093628       0.11735870      -0.77986920
H        6.53321390      13.25112176      13.28353308        1       0.18155023       0.03110002      -0.26716500      -0.46442646      -0.81352985       0.15476161
O        4.43754279       3.18730928       3.64162834        0       0.21429844      -0.84039198      -0.07111557       0.26019472       0.01136334      -0.28079152
H        4.86472679       2.43137400       4.07690172        1      -0.14919344      -0.10690406       0.14544134       0.19478518      -0.24605289       0.27549621
H        4.70705194       3.11119630       2.70766641        1      -0.12606840      -0.02982479       0.08107803      -0.17442399       0.24552059      -0.07455152
O        9.18379957      12.84543360      10.44883468        0       0.49522666       0.31454900      -1.81651722       1.45763314       1.21570659       1.49610019
H        9.48931494      12.83840072       9.53972306        1      -0.15557872       0.10648007      -0.06570673       0.20310274       0.21077722      -0.02971391
H        9.86587069      13.40115901      10.99914648        1       0.02405361      -0.22135354      -0.20843352      -1.54745936      -1.41470110      -1.26597071
O        9.41289550      12.11490233      14.56670216        0       1.03749390      -0.15281235      -1.13201143      -2.70051146      -0.83637297      -0.53701878
H        8.91559858      11.35998443      14.09232494        1      -0.13695648      -0.18471301       0.01951260       1.44673634       1.33619261       0.73820007
H       10.35011018      12.01039311      14.49656640        1       0.05584297       0.12678314      -0.02239179       0.95543206      -0.45715824      -0.39528930
O        6.60120355      15.84418517      14.46781814        0       0.95236117       0.16595663       0.44107326      -0.31665134      -1.12407684      -0.39659050
H        6.80624162      15.71790858      15.40909067        1       0.13503911      -0.38682587       0.07678039       0.35787272       0.03760797      -0.26230732
H        6.73354608      14.96470002      13.97068483        1       0.16195522       0.03119141       0.17377705      -0.00151610       1.66933417       0.96483088
O        0.74801604       9.05550245       7.90659578        0      -0.33978254      -0.28845416      -0.09838326      -0.45696986       0.68892455       0.23827156
H        1.48379956       8.45668822       7.81101208        1      -0.26753133       0.06741837       0.05128163       0.14449984      -0.53198028      -0.32837909
H        0.13228402       8.92863549       7.17005828        1      -0.46967892       0.29481543      -0.45415019       0.26951367      -0.06455689      -0.09051901
O       14.38755689       5.49086796      12.56853222        0       0.22772034       0.04938549       0.52527688       0.94196284       0.53316683      -0.11722361
H       15.11927330       6.08149685      12.23445887        1       0.00951941       0.02409585      -0.14989719      -0.83628929      -0.55271465       0.21471915
H       13.55741142       5.79879687      12.18005011        1      -0.18396352      -0.06869571      -0.03588588      -0.09342387       0.14192766       0.04882989
O       10.18210777       6.61412931      15.94161735        0      -0.08355796       0.04441498       0.71271731      -0.69284379      -2.29322290      -1.53511906
H       10.79692549       5.86430212      15.61253966        1      -0.11202655      -0.13417346      -0.10635460      -0.96931648       1.10982716       0.59357017
H       10.71676520       7.17214949      16.46686199        1       0.23654063      -0.08300992       0.04839384       1.35856009       1.15441561       0.88639623
O       15.82086460       0.48557324      13.51237860        0       0.07365127      -0.54826597      -0.08330239      -1.88912320      -0.26986563       0.31708145
H       15.16162927       1.22001441      13.36359889        1       0.02027092      -0.10393153       0.26733502       1.48634827      -0.49525151      -0.27013022
H       16.74292494       0.74489104      13.51218539        1      -0.16667474      -0.11002464       0.04146061       0.44248646       0.55989397      -0.16148058
O        6.41943378       8.23357677       5.27080315        0      -0.18553409       0.10566605       0.43598199       0.20336968      -1.86376333       1.69342315
H        6.60315680       9.17118253       5.17150208        1       0.19446328       0.09671026       0.11821712       0.00174911       0.81168717       0.24235234
H        6.72647595       7.97868470       6.23591493        1       0.21355199      -0.08936102      -0.16486155      -0.51830828       0.54817724      -1.80022931
O       14.93145861      10.14408233      16.24218106        0      -1.39703126       0.74197814       0.24319164      -0.05507542       0.25811547      -0.23755810
H       14.70505418      10.89051519      16.82819638        1      -0.23183214       0.15179863      -0.33554898      -0.14605533       0.13761838       0.11931503
H       14.82701787       9.33862091      16.75069344        1      -0.08009373       0.13949672      -0.18560850      -0.08463080      -0.32159388       0.08926406
O       18.56431322      13.19278239       8.66315730        0       1.16220464      -0.47686275      -0.46655631       0.30843049       1.19031215      -0.32360464
H        0.20282235      13.36397124       7.75131160        1       0.07699226      -0.08934906       0.04448313       0.45882851       0.22381902       0.02134595
H       18.18951569      12.33663149       8.53934183        1       0.04376486       0.11046216      -0.18699215      -0.71548808      -1.44686377       0.31645682
O       13.33165324      11.44632913       6.96170995        0       1.43307308      -0.08145753       0.17000804      -0.42154649      -0.86173105       0.63227147
H       13.11546810      10.49033641       7.15199533        1      -0.23602854      -0.02784557       0.06570797       0.03323630       0.36269075      -0.09452310
H       13.90835981      11.37851777       6.20581127        1       0.10891973       0.22744074       0.04160253       0.37465110       0.48659828      -0.77905607
O        7.14010269       7.50372210       7.82442961        0       0.86911234      -1.01856713      -0.27380746      -1.02285564      -0.15190846       1.14356470
H        7.40565330       8.21388109       8.45016619        1       0.04661923      -0.03922431      -0.00680994      -0.19443865      -0.48893589      -0.35156310
H        6.40750308       7.00167070       8.29104356        1       0.17399986      -0.03424692       0.01760978       0.96776378       0.70745343      -0.71671408
O        0.29682087      16.24684976      15.73576000        0      -0.46802379       0.52741281      -0.25068521       0.68826550       0.31890970      -0.69479728
H       18.40239073      17.04253493      15.85438751        1      -0.05071224       0.00256837      -0.18091785      -0.43383548      -0.32080901       0.41901976
H        0.07512118      15.53602522      16.35302352        1       0.16024279      -0.08637705       0.40883169      -0.29276863       0.24976262       0.08549909
O        1.02708192      15.60175736      13.03992253        0       0.04880682       0.35536461      -0.22512498       1.75344014      -0.86889970      -2.40933371
H        0.78775328      15.91674308      13.86867772        1      -0.00281826       0.10902790      -0.24712913      -1.19487524       0.90505683       2.43227053
H        0.25192985      15.48372391      12.46509703        1       0.06823223       0.05566946       0.01265532      -0.16953486      -0.00114940       0.23476675
O        8.74455809       3.40701208      12.78038976        0      -0.19300118      -0.44460385      -1.35669591      -0.33772290      -0.22541597       0.41429001
H        8.40158201       4.27152927      12.48309645        1       0.20953256       0.22966748      -0.05310814       0.05796202       0.13796368       0.23677829
H        7.94196075       2.95269745      13.16218259        1       0.15774864       0.15162579      -0.10007288       0.51434052       0.33322996      -0.22654028
O        6.23003655       1.02738358      10.83193155        0       0.51530172      -1.24567069       0.01197934      -0.86143035      -1.36283422      -0.49359226
H        6.53652456       0.74560471       9.93690044        1       0.07852383       0.08792060       0.15016162      -0.00049837       0.01888519       0.66720223
H        6.91610420       1.59879405      11.13496958        1       0.43100082       0.18975607       0.13579832       0.85610485       0.82962954       0.14647901
O       13.84821707       9.44119278       2.73422029        0      -0.24584779      -1.32954722       0.23944509      -0.83313340       0.38399115      -0.07630071
H       14.55893998       9.44636843       2.06009046        1       0.15136408       0.00740075      -0.18190847       0.13888732       0.08722672      -0.14380503
H       13.53140262      10.35381715       2.82104233        1      -0.10358925       0.06784600       0.09461805      -0.00467732      -0.19264616      -0.05610476
O        5.02441201       1.52006943       7.36248265        0      -0.01356812      -0.47289627       0.76384923      -0.59551537      -2.26315093      -0.41850671
H        4.62211439       0.77511772       7.90536300        1      -0.07047141       0.03974932       0.21870535       0.28702092       1.14056897      -0.17900673
H        5.12462275       1.01958326       6.50296745        1       0.16715411      -0.08597974       0.01425797       0.16588888       1.15309453       0.68981779
O        2.51482141       7.91916656      13.96333606        0       0.40150294       0.33255368      -0.38956245      -0.21260510      -0.98826516      -0.20186651
H        2.55524565       8.87317010      13.85246168        1      -0.08073516      -0.01666188       0.07237654       0.25982666       0.53871328      -0.15390179
H        2.65899423       7.56897286      13.06374396        1       0.00021955       0.02763656      -0.20738815      -0.19864421       0.20584980       0.58697146
O        8.82663650      16.64759592       3.52453469        0      -0.24929299       0.70215040      -0.94750837      -0.93168944      -0.02251431      -0.38963670
H        7.96617528      16.24585810       3.77810253        1      -0.21550691      -0.04495543      -0.06667329       0.46013799       0.27304232      -0.15798049
H        8.60924569      17.13677129       2.69586660        1      -0.05737333       0.18878961      -0.00398668       0.35566771      -0.21831599       0.53344941
O        5.25235643      13.41820565      17.89061477        0       0.13391673      -0.90003125      -1.33194895      -0.12086544      -1.63534904       0.30612338
H        5.21304527      12.90067796       0.09098597        1      -0.07749599      -0.02481638       0.00854041       0.10443383       0.91544330      -0.88401282
H        5.33959604      14.36475561      18.04747237        1       0.00999259      -0.01370465       0.12635035      -0.10233741       0.49633333       0.25398576
O       12.45058425       5.58178199       9.15089124        0       0.59376145      -0.98765625       0.34433305      -0.87676585       0.44267052       0.72183752
H       11.52816867       5.57299015       8.79924023        1      -0.00536338      -0.23355702       0.02912009       0.63515580      -0.25922850       0.23936754
H       12.37960029       5.53717114      10.13233706        1       0.20560672      -0.03352042      -0.14666679      -0.00133641      -0.04136898      -1.07916915
O       18.50815777       3.78622608      14.12899686        0      -1.23145383      -0.54441841      -0.49293432       0.47214475       0.04473541       0.58336174
H        0.63836192       4.22727567      14.59527509        1       0.11378820       0.10854658       0.01365031      -0.86568815      -0.04892173      -0.40299293
H       18.16266844       4.35295420      13.42279919        1      -0.05155252      -0.00610841       0.05594963       0.25351465      -0.06502803       0.06130628
O       11.12384573       1.70887992       8.88460929        0       0.09169840      -0.41486555      -0.23951195       0.02168153      -0.50374889       0.35377568
H       11.88177304       2.06667855       9.36382931        1      -0.07206807      -0.00396356       0.00479557       0.18889689       0.28955811      -0.09028500
H       11.23842051       0.72418673       8.97366597        1       0.15348474      -0.12719657      -0.14260524      -0.28890416       0.89166421      -0.30428171
O       13.94799914       4.29273300       0.67078988        0      -1.10089832      -0.61230250      -0.11493447      -0.60979342      -1.53471458      -0.18682078
H       13.74988290       4.78482626      18.49970776        1       0.12755477      -0.19341057       0.22538090       0.10520421       0.13338083      -0.31421676
H       13.76361833       3.33517389       0.43318578        1       0.23080423       0.04575466       0.19273318       0.06528459       1.04042149      -0.02375818
O        9.03540787       2.38350984       3.53346959        0       0.20279786       0.17378662      -0.81128154       0.43124098       0.82048833      -0.30245888
H        9.79913194       2.97227998       3.32432152        1      -0.00004450       0.04320990       0.00463027      -0.50316387      -0.43746585       0.04791671
H        8.37963182       2.61861334       2.85046346        1       0.03410850      -0.34810594      -0.21766239       0.11972305      -0.05363236       0.12179954
O        0.44313295       9.99715617      11.07080370        0      -0.28072832       0.04809538      -0.47977719      -0.29563528      -1.77088261      -0.32352051
H        0.87645658      10.83243670      10.92382727        1       0.09368062      -0.10468448      -0.11651266       0.31461868       1.05211222      -0.09396057
H        1.17462360       9.38616265      10.87046722        1       0.10707055       0.17093674       0.26901022      -0.27652884      -0.06362688       0.11641638
O       14.51830684      14.16533887      15.88319103        0      -0.68512563      -1.89205494      -0.14327901      -1.93060505       0.92343926      -0.02406587
H       15.35670041      13.78958878      15.67949280        1       0.00802399      -0.23643240       0.00598921       1.16304779      -0.72441363      -0.43447655
H       13.99381524      14.33842714      15.05743075        1      -0.18105850      -0.03235787       0.02035351       0.48623395      -0.21330510       0.71698463
O        1.47142181      12.36193042      10.87098305        0      -0.55667205      -0.93255307       1.09777251       0.82706904       1.70643604      -0.64909017
H        1.21012450      12.88824498      10.08544065        1       0.06334509       0.05403919       0.18587353      -0.63284445      -0.64364505       0.03977325
H        2.37743437      12.72072463      10.94135443        1      -0.06778477       0.03807345      -0.14831632       0.14188689      -0.48588344       0.38027835
O        8.41786542      17.79994676       0.91448858        0      -0.23001562      -0.02828950      -0.39113791      -0.64553761       1.38874888       0.09497108
H        8.80363984      18.59090371       0.41145122        1      -0.35938721       0.12593249      -0.07185357      -0.04960607      -1.23523366       0.56124681
H        8.86121977      17.01201780       0.62210573        1      -0.01460117      -0.16147767      -0.28358400       0.36305135      -0.43811730      -0.35364932
O       12.23301712      15.41617629       6.08751780        0      -0.70094355       0.39746601      -0.68004211       0.82273626       1.36087084      -1.34276915
H       12.49850800      15.62401978       5.14889818        1       0.28117680       0.17377881       0.19988613      -0.56429541      -1.09763658       0.55146551
H       12.59307612      16.23689879       6.45527522        1      -0.02683987       0.11722279      -0.04335144      -0.07493147      -0.00857049       0.51814592
O        9.67145322       1.02637324      18.20378220        0       0.23906427      -0.58460370      -0.31478471      -0.03005105       0.41030484      -0.93843210
H       10.42247055       0.49208874      17.88201339        1       0.02802348      -0.02355600      -0.04704487      -0.28025672      -0.03086445       0.19719951
H        9.31672206       1.55983992      17.44266335        1      -0.20638754       0.11063700      -0.11157322       0.45747966      -0.18859087       0.70059484
O       15.97567331      14.82030650       5.19277063        0      -1.01416350       1.08791148       0.52573420       0.04451116       0.82126129      -1.71755040
H       16.00271016      15.14182972       6.07144704        1      -0.33305978       0.08389285      -0.11068053       0.07652645       0.00158653       2.23490095
H       16.07293758      15.67178042       4.72536090        1       0.05322325       0.26600701      -0.06355097      -0.22471985      -0.70606595      -0.31656778
O        1.71119050       2.04896551       3.45934474        0      -0.95299966       0.38512933       0.74172111      -0.36326909      -0.76580358      -0.41194123
H        1.68227783       1.20520940       2.94193797        1      -0.11480417       0.23384308       0.05739751      -0.13410997       0.56691742       0.26906031
H        2.65017383       2.21938510       3.53829703        1       0.16714138       0.11040259      -0.08539452       0.49594259       0.18993665       0.11440863
O        8.36131889       9.88681233      17.93690079        0      -0.37395626      -0.22687248       1.19981165      -0.16060480       0.24486364      -0.04580100
H        7.64413718      10.39968284      17.49726255        1      -0.21882110       0.14979578       0.31655059       0.47806096      -0.57417637       0.18208371
H        8.39520047      10.21036667       0.21111203        1      -0.25701115       0.04731619      -0.01239411       0.02382315       0.21048704      -0.04248530
O       17.38224644      17.74914703       2.56766226        0       0.75190729      -0.44724521       0.94668489       0.26229060      -1.15316784      -1.33973145
H       17.06066411      18.57352404       2.87925663        1       0.00039418      -0.32603801       0.25378699      -0.78781277       1.60545897       0.53779870
H       17.69671982      17.31254566       3.33967098        1      -0.04762259       0.22455510       0.02104431       0.82718265      -0.70585001       1.35486341
O       11.85239698       4.66539924      15.18393353        0       0.23297576       1.13686285       0.41358314      -0.15568879       0.30699301      -0.33052859
H       11.97273968       3.71002925      15.13247868        1       0.03928019       0.00100794       0.30178298      -0.00843003      -0.71821159       0.11151960
H       12.61884396       4.93980930      15.69885025        1      -0.20662953       0.05106038      -0.05649121       0.55229205       0.27821127       0.22314349
O       15.23166815       7.93954213       9.30415637        0      -0.83754431       0.03753494       0.40354856      -0.37362361       0.35733572       0.36533225
H       15.86892055       8.62913370       9.03028540        1       0.26867458      -0.24678948       0.17331379      -0.43910474      -0.17657495       0.41877991
H       14.63127925       8.33046983      10.00256107        1       0.00740172      -0.24681948       0.19084926       0.81123072       0.00866702      -0.99695945
O       16.97731822       9.63896905       6.14307234        0       0.75840004      -0.67170739       0.77121510       0.27711892      -0.20267496      -0.64048308
H       16.11697607       9.30222068       5.89404765        1      -0.03652265       0.05684946      -0.06113596      -0.70465964      -0.82074666      -0.79925579
H       16.76089479      10.00544947       6.98473351        1      -0.03782827      -0.15298592       0.04287206       0.27761483       0.87491810       1.41501474
O       14.32965388       5.31531564      16.67890381        0       0.08294974       0.56704725      -0.16627360      -0.91780293       0.34537494      -0.10860784
H       14.86300712       6.11382395      16.53659090        1      -0.12773627       0.08848841       0.12364375      -0.28661406       0.00469369       0.46883568
H       14.84176938       4.58686203      16.34771304        1       0.15471636       0.03725018      -0.08074650       0.63026023      -0.91197085      -0.55313027
O       17.72260544       4.24836459      11.52064360        0      -0.95307232       0.50575902      -0.22917374      -0.17324620       0.69802976       0.42891550
H       17.23407229       4.50561477      10.73171218        1       0.19275748      -0.19281433       0.22033136      -0.52208054       0.79866517      -0.30954540
H       17.83450323       3.32318425      11.34309679        1      -0.01555936      -0.00520128       0.12676408       0.39620107      -1.51663589       0.18129855
O       13.42384106      14.29331953      13.37421534        0      -0.94173274      -0.58875379      -0.48292757       1.03939736       1.62958932      -0.12173755
H       14.19761695      13.71507052      13.35674242        1      -0.00505210       0.02642721       0.05523385      -0.12602478      -0.73993486      -0.40307915
H       13.83459224      15.19737309      13.14755248        1      -0.12420596      -0.06358207       0.01011856      -0.79329872      -1.05739653       0.33968538
O       17.99293901       6.01075241      17.01033917        0      -0.33705061       0.77825863       0.72368417       0.57323146       1.71349037       0.49439263
H       18.12337729       5.15908570      17.43934209        1      -0.04136958      -0.07802408       0.20695069       0.19226190      -0.44884068      -0.17576802
H        0.10295007       6.62539585      17.29246056        1      -0.00606473      -0.03859947       0.01294843      -0.69617319      -1.34216237      -0.24888140
O       18.37623885       1.46877052      10.98250674        0      -0.44477511      -0.25881067      -0.63100761      -0.46159774      -0.06895119      -0.85516077
H        0.01273454       1.21187488      11.87717143        1       0.21720477      -0.08013273      -0.17154459      -0.13548633      -0.01374591       0.22345102
H        0.51224299       1.83809090      10.54526740        1      -0.27423837      -0.26505628       0.13421730       0.44954222       0.20263645      -0.03061758
O        4.05393510       7.03945922       3.43265031        0      -0.95958976      -0.28633840       0.56502168       1.40635300       0.55237913       0.62195700
H        3.32666180       6.43330357       3.59104303        1      -0.02134687      -0.06395540       0.29611549      -0.09858461      -0.15457398       0.69977337
H        4.57481305       7.20550906       4.26999383        1      -0.04752648      -0.28266456      -0.16865333      -1.20563900      -0.29118437      -1.06586969
O       11.44222611      13.84074056       1.36615110        0       0.12580813       0.18496858       1.71037871      -0.63369751      -0.06154530       0.06826627
H       11.91555049      14.49846730       1.90301267        1      -0.04744064       0.09684813       0.14214257       0.08092134       0.30574465       0.12294837
H       10.53139464      14.18992718       1.19786782        1       0.09268862      -0.28028406      -0.01359448       0.46180284      -0.17183819       0.18430734
O       17.16514868      10.98876509       3.61512690        0       1.06591409      -0.62544794      -0.73545372      -1.10082448      -0.60636151       1.55467510
H       18.04130072      10.62621566       3.42501776        1      -0.12959784       0.01736432      -0.15396054       0.26921883      -0.13416487       0.00711226
H       16.91836671      10.54194116       4.49260678        1      -0.05319187      -0.05956921      -0.28679938       0.75933182       0.68083346      -1.45524931
O       13.55786447      12.10687772       9.51837801        0       0.09727219       0.64814486      -0.58548026      -0.15782246       1.49570084       0.00075489
H       13.12764154      13.00746973       9.56811386        1      -0.30666319       0.01810596      -0.28173165       0.42736667      -1.21978402      -0.02035136
H       13.80362899      12.00305840       8.56871290        1      -0.17292431      -0.02430864      -0.18530553      -0.40011314      -0.14227797       0.22453769
O        6.16288621      15.69954508       4.05796405        0      -0.49044377      -0.23208370       0.57965668       1.28882217       1.13169587      -1.24980676
H        5.60792779      16.39895694       3.62770963        1       0.06652420       0.07452781       0.22866845      -0.04991221      -0.84040862       0.59037668
H        5.66840092      15.15475847       4.65951633        1       0.15999295       0.05487156      -0.03604037      -1.18442798       0.03912577       0.31424201
O       11.58071815      17.73534177       8.76149088        0       0.29206254       0.28506615      -0.98374371       0.23503415      -0.77693403      -0.08225715
H       12.21527805      17.70816504       8.00929695        1      -0.11184547      -0.05006835       0.12729891      -0.25241184       0.16923881       0.23899302
H       11.22138560      16.83828452       8.90754150        1       0.11307461      -0.11705862      -0.00291895      -0.00753989       0.55239892      -0.08412780
O        9.78277168       5.07333035       8.35351031        0       0.01065670       0.03340066      -0.17529632      -0.40688929      -1.28504372      -0.23955414
H        9.82773066       4.21633781       8.83347767        1       0.00894420      -0.32081238      -0.00468021      -0.13112742       0.79668498      -0.11608798
H        9.42718653       4.76529104       7.44480456        1      -0.21150440      -0.02295066       0.27568677       0.68148166       0.76239145       0.87816215
O        8.94748036      14.61705538       0.43028476        0      -0.57519662       0.55101064       0.30692898       0.81554937       0.25043732      -1.12200558
H        8.29939371      14.43853275       1.12164867        1       0.14607115       0.03898148       0.08187446      -0.48204434      -0.40544641      -0.02326670
H        8.78741277      14.00280886      18.28453615        1       0.16741465      -0.29038157      -0.32771931      -0.32320797       0.44711000       1.05200458
O        5.04940687       3.35778182       0.66214113        0       0.35710620       0.33925994       1.64968150      -0.04880874       0.14771943       0.03102840
H        6.01341736       3.47005651       0.83192508        1      -0.16950059      -0.09681034       0.02276324      -0.43961975      -0.25700089       0.18668799
H        4.94742030       2.44892698       0.35145620        1       0.07904167      -0.11006792       0.20666192       0.07671620      -0.05899456       0.08345354
O       11.68473101       6.40571223      12.17737602        0       0.47283032       0.43649490       0.70788833      -0.05461303      -1.26013887      -0.41001904
H       11.69382905       7.23203791      12.64552992        1       0.21109568       0.05854560       0.28719128       0.11555120       1.06800520       0.41455573
H       11.45791811       5.74653824      12.85045237        1      -0.12360436      -0.00603082       0.01090029       0.11110121       0.00784826      -0.10523428
O        0.90077095      11.57591678      13.57618342        0      -0.70863486      -0.51926380       0.83226043      -0.83511847      -0.81060314       0.82170957
H        0.85145049      12.10138326      12.78376158        1      -0.23466631      -0.03112376      -0.06346501      -0.18609411       0.44471508      -0.64923418
H        0.06093496      11.05089058      13.59917508        1       0.22520715       0.11583964       0.01658182       1.12054670       0.52738863      -0.01321691
O       13.29336377      18.12961372       6.57515327        0       0.05634154       0.73066071      -0.60186760       1.95691252       2.22291183       1.31552792
H       14.10538259      18.54098426       7.10746983        1      -0.01794200      -0.16067287       0.15281023      -1.87653804      -1.22489333      -0.99136180
H       12.90945969       0.36040655       6.31611091        1      -0.22159221       0.20036634       0.19740968      -0.17093614      -0.89988190      -0.07358609
O       16.86011530       7.52637022       2.44442961        0      -0.47930724      -0.65969478      -1.29184841      -0.96778232      -2.28511453       0.52561575
H       17.66182777       7.21732370       2.92496687        1       0.05737534      -0.33191808      -0.11076074      -0.13591628       0.86988628      -0.29035947
H       16.21710681       6.76289824       2.56044684        1      -0.01955365      -0.01842746       0.18944817       0.46547890       1.49437952      -0.26346382
O       15.57619964       7.36787485      17.62704708        0      -1.21899504       0.93067435      -1.01754743       1.22006643      -0.24529037      -0.24168231
H       16.51725368       7.01724224      17.52762470        1      -0.15219305      -0.08420742      -0.19123673      -1.30197668       0.81381738       0.23603913
H       15.54562010       8.12220965      18.23809680        1      -0.18572231      -0.08727310      -0.15103661       0.59567451      -0.13560352       0.23648396
O        8.47271332       2.77563822      10.21896081        0      -1.27602876      -0.17134176       0.80280626       1.47866356      -0.86775243      -1.06426775
H        8.88143904       2.94770585      11.10550673        1       0.16876966       0.20690024      -0.12725807      -0.20377949      -0.33728695      -0.51363081
H        9.06122907       2.19296735       9.63725233        1      -0.24424196      -0.09705783       0.25874743      -0.84350836       1.06348324       1.36088467
O       14.88879516       0.69580011       8.57257001        0       0.67941423       1.58098623       0.79407064      -0.40234697       0.53510582       0.36725244
H       15.73095354       0.33957528       8.85998640        1       0.00288903      -0.19739445      -0.12086995       0.73168379       0.06765138      -0.09286434
H       14.80882694       1.58406396       9.01066973        1      -0.05929902       0.09999963       0.01886180      -0.32806486      -0.66411221      -0.33257651
O        4.40042197      14.05150550       5.23698061        0       0.22309718       0.89517471      -0.29677724       0.45481074      -0.89435953      -0.11278243
H        5.10679549      13.40820021       5.03509989        1      -0.21325896       0.17440901       0.19451261      -0.55494940       0.09105007       0.42822152
H        3.68335874      13.79314122       4.61313470        1       0.14264585      -0.04368568      -0.15601100       0.02129117       0.52221239      -0.09888370
O        8.53712062      13.68358603       7.45937099        0       0.59470288       0.10484183      -1.16927556      -1.60994601       0.33351451       0.03353089
H        7.73994988      13.12474599       7.58173082        1       0.17182718       0.31363186      -0.40015826       0.63152766       0.27878541      -0.04751322
H        9.31146593      13.14342111       7.35120519        1       0.44073291      -0.20901690       0.06686208       0.96846747      -0.47158089      -0.07108682
O       14.36674994       5.72375257       2.96576482        0      -0.35542074       0.22768779       1.30620135       0.76346457      -0.11849196      -0.89355874
H       14.22800616       4.89898779       2.46812769        1       0.09416102       0.14834945       0.27065671      -0.07112905       0.37092924       0.13658357
H       13.71496214       5.75101597       3.65784953        1      -0.13244632       0.09343443      -0.20720920      -0.63308841      -0.07334233       0.93637264
O        8.96824927      12.93093547       4.27584808        0      -0.52791553       0.54756517       0.50386826       0.19999024      -0.55884004      -0.48914561
H        8.91598657      13.44110669       5.07838696        1       0.12345956      -0.02266637       0.06100155      -0.13653283       0.52348226       0.63409185
H        9.91474294      12.90391325       4.06342254        1       0.09109375      -0.19819008      -0.14574618       0.19477491      -0.10652813       0.01699134
O       17.97684238       6.09233228       7.27066362        0      -0.70792454      -0.19316995      -1.01814577       0.64117730      -0.45034838      -2.44451332
H       17.99407968       6.39685575       8.15575975        1       0.09724538       0.05294891       0.01966675      -0.08700161       0.62798357       2.06413388
H        0.16556141       6.47842590       6.90354288        1      -0.05101355      -0.07439388      -0.04362455      -0.35629886      -0.44767579       0.27488047
O       17.77959463      15.05329258      11.28552217        0       0.12879966       0.35096796      -0.64975651      -1.66830122      -0.14752869       0.19920659
H       18.22714707      14.34657328      10.82978166        1       0.04788229      -0.10004181      -0.29260238       0.38001618      -0.51507604      -0.41882831
H       16.89344043      14.64140096      11.45915768        1      -0.33106744       0.02173922      -0.11504028       0.97826290       0.42292765      -0.25292173
O        1.16450411      10.29089144       3.90937206        0      -0.58624097       0.25713933       0.47541708       0.39103529       0.30024120      -0.19162661
H        1.21005157      10.94909858       4.63373626        1      -0.01912689      -0.28433949       0.21277396       0.27348122      -0.39551026      -0.36468127
H        1.76436855      10.59766408       3.19721773        1      -0.09415608       0.16273353      -0.11308761      -0.21662182       0.05434255       0.39509365
O       14.59907326       8.41727927       4.97118582        0      -0.24652397      -0.69089582      -0.72913706       0.14182383       0.22525157       1.07659507
H       15.12391390       7.61028967       4.83949302        1       0.00447173      -0.06101044      -0.13981984      -0.06480969      -0.15985969      -0.05757157
H       14.18778896       8.73167827       4.14690519        1       0.03576060       0.02130887       0.28847208       0.29419023       0.04313330      -0.40899807
O        7.12875136      13.64010321       2.27826194        0       1.35685589      -1.31798524      -0.56044995       1.68928814      -1.55968738       0.15206885
H        6.71369254      14.37764710       2.69724052        1       0.03692710       0.07039997      -0.20085573      -0.82791537       1.17586994       0.77696443
H        7.84208016      13.37152336       2.93456368        1      -0.23093366      -0.27454105       0.13373021      -0.97849363       0.43301490      -0.72155833
O       15.91853315      12.74312126      10.85560013        0       0.10101850       0.76717899      -0.18807366      -0.42937279      -0.30182099      -0.36438620
H       15.77525026      12.38470971      11.75287820        1      -0.06545948      -0.26123218       0.04411373      -0.00236684       0.15185866      -0.02552799
H       15.06432398      12.57079007      10.38014002        1      -0.16095845      -0.15351867       0.04500746       0.63858366       0.18919060       0.36692166
O        2.47007881      10.23791178      15.81250081        0      -0.68151281      -1.43437418       0.55920128       1.37889957       1.22329164       1.25081873
H        2.58644977      11.22631430      15.91771888        1      -0.21359040      -0.02825506       0.00881016      -0.45577654      -0.82921052      -0.71309710
H        3.14560704       9.92970641      16.47476800        1       0.14803222      -0.22974489      -0.06766317      -0.70000923      -0.15694696      -0.68783349
O       12.98929978      17.97058105      15.02435613        0      -0.06896453       0.15386120       0.46202876       1.38259745       2.04654670      -0.98777258
H       13.41147661      17.87290912      14.14714828        1       0.19768031       0.11220945       0.00364286      -0.61454672      -0.54303533       0.78004324
H       12.46776281      17.23077004      15.24276328        1       0.04635815       0.02709731       0.12917318      -1.08704913      -1.90969586       0.18732283
O        1.47155274       5.47383232      11.13012057        0      -0.22415791       0.25330227       0.50415850       0.86630738       0.72638440      -0.43966740
H        0.76452966       5.13228269      11.69280834        1       0.06932030      -0.19174716       0.07794004      -0.37185073       0.05171485      -0.38140678
H        1.06442282       6.08193134      10.46495353        1       0.14951059      -0.10906914      -0.10955668      -0.02841306      -0.38165545       0.72022641
O        2.07056576       2.93808219      10.32459871        0       0.28866788      -0.34549502      -0.78698276       0.92512035       1.24104190      -1.16198397
H        2.50209537       3.06822405       9.42030518        1      -0.23263268      -0.00795835      -0.03439967      -0.46976811      -0.41624638       1.33884418
H        1.98493641       3.89487024      10.61154061        1       0.12553375      -0.08722329      -0.08800832      -0.43905780      -0.95174485      -0.25541532
O       12.81580704      15.59756793       3.06450439        0      -0.54502522      -0.51457051      -0.91815397       1.26717734       1.77608538      -0.05650344
H       12.36029412      16.49394056       3.10562911        1      -0.00128641       0.32424038      -0.19724255      -0.10841645      -0.85027397      -0.40995514
H       13.73795802      15.90105509       2.77716440        1       0.01554510       0.14604339       0.16160317      -1.26379561      -1.10933042       0.63202071
O       11.27407945       4.29205757       2.60588078        0      -0.14727417       0.37746111      -0.07965773      -0.27118757      -0.35954967      -0.63514316
H       11.47392256       4.88923465       1.85207843        1      -0.04534654      -0.03460156       0.26358676      -0.18523934      -0.22798818       0.98896509
H       11.55613351       4.65888069       3.46058059        1      -0.24456029      -0.02349564      -0.15219190       0.29496926       0.31414568      -0.07717328
O       14.47043938       2.47639915       5.27571642        0      -0.47560517       0.74882432       0.31893644       0.35673773      -0.30578321      -0.25418153
H       13.51570978       2.42116374       5.14604015        1      -0.02055103      -0.05746271      -0.03585624      -0.47590518      -0.12906128       0.31884021
H       14.63314790       3.40646371       5.14179208        1       0.02392585      -0.24367414       0.33281783       0.25048357       0.68328553       0.25787365
O       18.43991593       1.09527910       5.88581521        0       0.21872318       0.13823899       0.28317543      -0.77524447       0.79176623      -2.13045812
H       17.54716721       1.08410659       5.43647559        1       0.04708574       0.02711300       0.20815366       1.28089881      -0.19737086       0.73198462
H       18.39212002       0.71763577       6.74064309        1       0.11372297       0.11420874       0.12555021      -0.59782869      -0.84433359       1.45170498
O       11.16353281       9.27503381      12.15214609        0       0.86091356      -1.08139566      -0.19207516      -0.83698970       0.26820824       0.15389255
H       11.33712159      10.06650873      12.74713794        1       0.15211215      -0.12713432      -0.16907973      -0.48984140      -1.48017311      -0.67206192
H       10.25599543       8.84089979      12.30584163        1       0.04589204       0.18744993       0.22153851       1.96590757       1.13814998       0.31525487
O        4.41253831       5.17174248      11.49667056        0       0.54618474       0.12178298       0.17160058      -1.76402426       0.66241443      -0.60916275
H        3.47578959       5.35260399      11.15636781        1       0.05424556       0.12882588       0.26928514       1.68759942      -0.65786135       0.72143543
H        4.81059440       4.41150462      11.02510532        1       0.05778404      -0.12052374      -0.28267778       0.02333222       0.35580969      -0.19928361
O        4.14006347       9.36842734       7.60853001        0       0.82231528      -0.51929530      -0.10129676       0.62913018      -0.30563727      -0.29869223
H        3.35810014       9.51853183       7.06049337        1      -0.03533101       0.02688739      -0.07284750       0.17182893      -0.14532396      -0.04899340
H        4.72333527       8.73224826       7.12964281        1       0.16281123       0.22131816       0.12365499      -0.82628959       0.61865920       0.37681925
O       12.44379398       8.00563642      17.03291329        0      -0.47299928      -0.89085330       0.33644183      -0.29917330       1.39882040      -0.51950663
H       12.60241768       7.75261837      17.95114686        1       0.03859631       0.15618578       0.23622071      -0.02664819       0.18358487       0.18065923
H       12.19278205       8.98669655      16.97787077        1      -0.06943334       0.10538841      -0.12112076       0.11689879      -1.62427318       0.58990824
O       12.23877757      10.92366294      14.09740433        0      -0.45689892      -0.84594492      -0.73403584       1.15015066       1.22865951       0.20188153
H       13.05166884      11.38291760      14.42029433        1      -0.34324703       0.07641747      -0.10351904      -0.56123030      -0.34084427      -0.86870790
H       11.91935469      10.57736691      14.92142938        1      -0.14113689       0.15214187      -0.06411487      -0.68854535      -0.74929345       0.86379528
O       14.51550130      12.42166869       4.42534899        0       0.97601458      -0.63038858       0.67780829       0.71482706       1.68195271       0.48324680
H       14.98284621      13.29683246       4.53372279        1       0.05988599      -0.10417711       0.18987160      -1.07712007      -0.58966827       0.29287100
H       15.25966099      11.95148805       4.06902496        1      -0.01623963      -0.05830398      -0.25705876       0.48357397      -1.06947231      -0.74609387
O        1.56291390      12.58932992       6.08123408        0      -0.75031180      -0.03474130       0.11401013      -1.32204556       0.05743212      -1.44780350
H        1.13543920      13.06229674       5.29813815        1       0.54786347      -0.00954534       0.27083401       0.78876084      -0.35747030       1.36102736
H        2.20519125      13.14807773       6.53216540        1      -0.01630901      -0.05835420       0.12751554       0.02500826       0.14576775      -0.07102840
O        8.23962228      12.94740558      17.14254485        0       0.27182319       1.05027724      -0.63591581      -2.07731342      -0.73295689      -0.54352248
H        8.63290072      12.67210358      16.28977261        1      -0.13628181      -0.13377770      -0.29256413      -0.15581024       0.06009305       0.19055751
H        7.23378048      12.76724282      17.08968828        1       0.09815876      -0.06252234      -0.00911386       2.18375373       0.63031483       0.12941043
O        3.17847045      16.71461402      15.40635043        0      -0.20432407      -0.04743531      -0.37442428       0.43785065       0.22410482       0.27207315
H        2.23679148      16.44624110      15.48951593        1       0.02143383      -0.04302680      -0.24856913       0.43078697       0.86676627       0.02412980
H        3.28909318      17.64788923      15.10873275        1       0.15923894      -0.53902255       0.01270972      -0.77156103      -0.79326367      -0.06648356
O       11.36634427      15.75087788      16.07217906        0       0.76853514       0.16093495       0.35465054       1.19051099      -1.85501909       0.39321163
H       10.51871311      15.55177681      15.66053121        1       0.08270664      -0.07006221      -0.06995363      -0.28090757       0.11447045       0.01624870
H       11.75767609      14.83324435      16.35556974        1       0.14276199      -0.09661726      -0.09775148      -0.90060467       1.81389356      -0.66814780
O        8.56594270      10.37689794       2.22004492        0      -0.95277669       0.61571252       0.94993322       0.02797563       2.18787217      -0.37599975
H        8.79937934       9.66289356       2.78477149        1      -0.04648264      -0.17344867       0.14701078       0.22237344      -1.28800750       1.03863370
H        8.88898914      11.16401122       2.71487277        1      -0.17746998       0.01311495       0.10774965      -0.33294538      -0.74182028      -0.61966997
O       11.91153789      12.04555583       3.53040277        0      -0.02102060       0.63091086       0.81226544      -0.90004480       0.40446132      -1.08521616
H       11.68151404      12.51799721       2.67926441        1       0.02974180       0.08898890      -0.11509535       0.27137628      -0.47062004       0.70217907
H       12.68390580      12.52280129       3.84724440        1       0.16352146      -0.15675144      -0.09383548       0.50559008       0.00939156       0.22881655
O        3.97423172       8.94792710      17.88395690        0      -0.39274135      -0.46070943       0.88884769       0.41258183      -0.27290484       0.68732762
H        4.10939727       8.05945724      17.49161411        1      -0.11653488       0.18898997      -0.15318474       0.17050691       0.75253439       0.54254276
H        4.48994836       8.97015306       0.08559115        1       0.04691325       0.16260060       0.00576764      -0.36292875      -0.33029193      -0.72491193
O        0.29300145       9.67766642      17.18350685        0       0.38798116       0.36664566      -0.59152309       1.85313141       0.56619811       0.12894759
H       18.30500165       9.44463492      16.50429139        1      -0.23452888       0.08190544       0.28005225      -0.78481776      -0.01790208      -0.61752421
H        1.10213009       9.97860393      16.61076108        1       0.02989056      -0.15196114      -0.22075450      -1.18501019      -0.50951350       0.94441730
O       14.53964294      16.27143075      17.65438185        0      -0.19806913       0.26482407       0.63699555      -0.21334869      -0.80921042       0.09312329
H       13.65575366      16.65048476      17.77516634        1       0.23007463       0.05479185      -0.16443119       0.03116669      -0.16581419      -0.08381189
H       14.43671170      15.40397655      17.16200046        1       0.14164857       0.16294925       0.05200724       0.09278287       1.32503879       0.34218425
O        1.36393387       2.06828699       0.05357151        0       0.73788231      -0.68172825      -0.91938755       0.34290093       1.78610170       0.70198154
H        0.53192975       2.36474279      18.22242539        1      -0.06341706       0.03766960      -0.21953587       0.73330063      -0.26276559       0.70166773
H        1.62080336       2.88846665       0.66603082        1       0.06974354       0.22872747      -0.14419412      -1.00773907      -1.89829826      -1.50331521
O        9.60112956      16.78457341      13.18851575        0      -1.23699291       0.03337228      -1.04022071       1.42694879       0.91670525       0.17529795
H        8.79124249      16.85873364      12.66958035        1       0.12159135       0.43912930      -0.03616525      -0.48849031      -0.09138178      -0.42097801
H       10.21151714      17.48584554      12.82320221        1      -0.10986274      -0.29471326       0.02978479      -0.59881431      -0.98918116       0.14332303
O        2.99039827      11.10393562       1.44782281        0      -0.38920808      -0.91135001      -1.23234243       0.48573089       0.12229482       0.38632622
H        2.58249090      11.04039297       0.57808012        1      -0.13231720      -0.09772063       0.02196720       0.20536678      -0.02292751       0.09149964
H        3.98486824      11.16028703       1.37474550        1       0.23312919      -0.10538108      -0.39098369      -1.22201157       0.17124388      -0.16848290
O       16.44062059      18.01910827      16.42793651        0       0.39522532      -1.44579208      -0.94810051       1.46125793       0.56525660      -0.07661866
H       15.75736237      17.58651162      16.91592253        1       0.11883315      -0.06719055      -0.00099445      -1.01966012      -0.94403112       0.60623443
H       16.00453288      18.41686846      15.68176396        1       0.22282197       0.26686087       0.09741983      -0.29902273       0.37447748      -0.62610400
O        9.31821077       4.32085326       5.88937782        0       1.02861564      -0.02353490       0.23328590      -0.44129008      -1.22313285      -1.19691086
H        8.67772405       4.72973467       5.28376017        1      -0.16776115       0.21186405      -0.06023596      -0.01623056       0.10765072       0.30856076
H        9.38078550       3.40371562       5.50830296        1       0.12392335       0.26119083       0.15296723       0.10201031       1.18172646       0.71036100
O       10.59600513      10.23403478       5.45444005        0       0.50016706       0.31709476       0.36844669      -1.35175419      -0.81305873       1.06812739
H       11.26129293      10.59540804       4.88647537        1       0.01006973      -0.02938402      -0.17577774       0.39879310       1.10858953      -0.48943952
H       10.06269364      10.92163334       5.89914003        1       0.04607428      -0.13986903      -0.05394801       0.92712587      -0.35480052      -0.74442589
O        6.43807162       2.44925418      13.71787349        0       0.80958621      -0.78184720       0.28746719      -1.33626246      -0.65499556       1.36860013
H        6.07797319       2.17175343      14.61819556        1       0.38205076      -0.15658697      -0.12645409       1.09388459       0.34772938      -1.13315225
H        5.60169282       2.51284017      13.21357176        1      -0.08600668      -0.14535079      -0.22666845       0.18697757       0.36310309      -0.27450532
O        5.85531902       3.98748846      16.35466318        0      -0.17145543      -0.72329032       0.28551684      -1.07001698      -2.20852804      -1.28251719
H        5.17608479       3.44489997      16.81921705        1      -0.06095440      -0.00660569       0.04102973       0.53386652       0.26537073      -0.45187598
H        6.16567689       4.60321700      16.96777336        1      -0.00461520       0.00778677       0.10823637       0.81693166       1.96786082       1.59403205
O       16.40739071       1.48472398       3.73397457        0       0.94187257       0.95023567       0.11871614      -0.10708836       1.42310989       1.26096654
H       15.70381225       1.81434480       4.40299819        1      -0.11424852      -0.22906962       0.02447137       0.24020039      -0.81813121      -1.15939307
H       16.94590488       2.30221101       3.67926414        1       0.13190638       0.11740811       0.11437533      -0.01451392      -0.42231065      -0.26149297
O        5.69175372       0.84803288       4.63789814        0       0.70348117       0.04965602      -0.27740683      -0.96023273       0.73654264       0.76657057
H        5.14410644       0.29904887       4.05932829        1       0.23570370      -0.03290377       0.01219047       0.33331826      -0.57304931      -0.38786554
H        6.59695473       0.90999688       4.35900189        1      -0.28685114       0.23133055      -0.16559731       0.50728077      -0.36956233      -0.46275079
O        6.86546431       5.17538734       4.12663587        0      -0.25199446       0.29467030       1.15493316       1.86159515      -1.01629758      -0.38864434
H        6.07566120       4.67731057       4.23500142        1       0.00450317      -0.00306393      -0.28970109      -1.29402089      -0.66287416       0.14971164
H        6.63747545       6.08026352       4.12734763        1       0.27089439      -0.10581064      -0.10255911      -0.54578114       1.60993147       0.10327134
O        4.13518410      13.73390468      10.34002222        0       0.67916873       0.40088353       0.97498545      -1.01361144       0.15872273      -0.32845634
H        4.00596723      14.49725565      10.91245696        1      -0.08265161      -0.07189457      -0.36037994       0.44478318       0.14848936       0.34256488
H        4.87143796      13.21517371      10.68213770        1      -0.12203455       0.11227271      -0.06660674       0.44845790       0.03888491       0.17191926
O       15.53237991      15.70100428       2.20637819        0       1.18152090       1.17800401       0.18736692      -1.95331705      -1.27530205      -1.31707644
H       15.12578536      15.97186680       1.34730368        1      -0.05283596       0.15412795      -0.23701004       0.53867328      -0.37882364       0.38614640
H       16.06046685      16.44366649       2.41781143        1       0.17738362       0.13312770      -0.13361254       1.41470265       1.72217989       0.24054527
O        5.64746375      11.34070977       1.37818796        0       0.39410282      -0.41579687       0.63103725      -0.93148458      -1.83359468      -0.43125707
H        6.33938079      11.93554735       1.62337260        1      -0.31031120       0.29560218      -0.18320408       0.95107055       0.67803162       0.74191439
H        5.80082152      10.42618140       1.72859382        1       0.01478120      -0.33687478      -0.05823889       0.29175681       0.94929081      -0.32748970
O       15.82687546       3.10048854      15.49833567        0       0.12554539      -0.09992017      -0.37690964       3.44132423       0.92231101      -1.39466405
H       16.73191779       3.28100406      14.97204452        1       0.07568043       0.05852618       0.15848701      -2.23741484      -0.10834334       1.83919311
H       15.37641003       2.63077171      14.80940228        1      -0.04108493       0.03399192       0.07976526      -1.03245878      -0.56943941      -0.33470142
O        9.24757953       7.81899496      13.40069301        0      -0.72425280       0.15613378      -1.27788806      -0.29124463      -0.79586488      -0.87988377
H        9.09107744       7.02574525      12.81163459        1      -0.11654720      -0.07827060      -0.15780475      -0.38707280       0.71475232       0.27575630
H        9.55015463       7.41533426      14.21317483        1       0.00039511       0.16684746       0.13079233       0.38333660       0.00850894       1.04639506
O        5.19323746      16.16034445      17.59613820        0       0.79050607       0.49250114      -0.23338439      -0.05419744      -0.59970915      -0.72831553
H        5.10003624      16.90779316      18.16986498        1      -0.32819192      -0.32332038       0.20861663       0.15028495       0.82126045       0.65479124
H        4.63033804      16.38798034      16.83862853        1       0.26071353      -0.00700700       0.20051943      -0.21032742      -0.25038120      -0.06046620
O       14.23571578       4.90659888       7.24095708        0      -0.62152428      -0.27058564      -0.68088041      -1.31659055      -1.96689618       0.55619717
H       14.88896230       5.46109175       6.86337028        1      -0.04486326       0.29832159      -0.01384328       0.32129446       1.50573230      -0.64559484
H       13.53172897       5.27355955       7.81968806        1       0.04222313       0.10676956       0.12760767       0.98386425       0.46576238      -0.04854545
O       12.14362289      15.02553827       9.79905842        0       1.00962607      -0.70093508       0.09580077       0.67108768       0.01230479      -2.97516370
H       11.76046188      14.84962093      10.64078171        1       0.00171281       0.11465743      -0.29532994      -1.18588972      -0.48313400       1.55717325
H       11.50931257      14.77667988       9.07071566        1       0.02812305      -0.05171840      -0.02423577       0.84392345       0.06353275       1.36408162
O        3.23721626       8.65100042      10.36666504        0      -0.16395697       0.41972462      -0.27919460       0.21594507       0.22157435       0.56107605
H        3.53304938       9.25693306      11.08776105        1       0.09997227      -0.02441372       0.00100428      -0.30900431      -0.40816477      -0.39509231
H        3.68406070       8.95321537       9.56475002        1      -0.13298402      -0.17810282      -0.18153733      -0.08289815       0.13610388      -0.16540769
O       11.32417812      17.81222344       2.69006909        0      -0.73443360       1.10755820       0.60713905       0.00156322       0.31599861       1.07652175
H       10.75684858      17.83177098       3.48106820        1       0.01386596      -0.16798023       0.36132932      -0.23009428      -0.40470380      -0.22188951
H       11.64028653       0.09203497       2.73645999        1      -0.03402588       0.15990183       0.06340862       0.07817739      -0.13713193      -0.84250772
O        4.17874720       4.92696233      14.10727175        0       0.15537037       0.68003448      -0.73014712       0.17030080      -0.47544602       3.08111238
H        4.38304420       5.04478986      13.20508848        1       0.32929642       0.04363729       0.17399854       0.57352424      -0.03176107      -2.27975035
H        4.96304276       4.65125285      14.63247823        1       0.10777800       0.06987033       0.38922521      -0.52452832       0.22151983      -0.53451252
O        2.58484538      13.95028047       3.20323848        0       0.22245820       0.60358873       0.52952746      -0.90399671      -0.06654242      -1.22737169
H        1.77743817      14.46890991       2.91084641        1       0.01819309      -0.14402860      -0.18394616       0.99018902      -0.58034664       0.49147546
H        2.69741020      13.31810692       2.45754097        1       0.00687994       0.36515384      -0.33298560      -0.00605351       0.35337305       0.75874329
O       11.42258963      18.25302960      11.62771907        0      -0.25102168      -0.00766110       1.15297338       0.32289672      -0.62665260      -1.38998616
H       11.57179678      17.81012339      10.74382270        1       0.28029045       0.18142163      -0.01555955      -0.48212880       0.70054674       0.97790182
H       12.32817691      18.36328930      11.91872992        1       0.14240071       0.02755728       0.01745680       0.27835530       0.15033516       0.43673968
O       18.41341515       7.25217622       9.75157332        0       0.07201933       0.19817295       0.33523207      -0.04497655      -0.40934879      -0.07878131
H       17.68016609       7.18470385      10.37273086        1       0.06685259       0.08278978       0.10833763      -0.25080395      -0.13248280       0.54251796
H       18.48410667       8.18801559       9.55667174        1       0.14913607       0.15769103      -0.24308394       0.49252728       0.19403706      -0.29009917
O        5.76028295       8.40843940       1.60395787        0      -0.50257301       0.23698268       0.07539579      -1.44998693      -0.17855564       0.43704224
H        6.68990049       8.30779955       1.76002309        1      -0.16751464       0.14784754       0.09597664       0.99153590      -0.26631808      -0.17864662
H        5.30313921       7.77929008       2.21490361        1      -0.03668441       0.07960601       0.10323045       0.10505453       0.65644574      -0.45162985
O        2.42542466      18.29187232       5.00445461        0       0.38502352      -0.18240248       0.03324514       0.22625470      -0.63595188       0.56426626
H        1.87656270       0.42092097       4.85457094        1       0.13296704      -0.09941056      -0.15877630      -0.38536561       0.51237243      -0.05636140
H        2.24375466      18.04188688       5.93073217        1      -0.23646624       0.10190836       0.13691564       0.05265767      -0.10092713      -0.48625726
O       12.31447536       5.35516626       5.01718841        0       0.95649490      -0.31134194       0.61183628      -0.66870522       0.85879439      -0.33034009
H       12.77110069       4.99346048       5.76533976        1      -0.06947532       0.01423234       0.06610815       1.06307781      -0.87640905       0.55531496
H       11.66747449       5.89214336       5.51233933        1      -0.31115744       0.18132251      -0.12477806      -0.31731758       0.25370687      -0.46450695
O       16.60311883       7.09939404      11.94466169        0      -0.31065925      -1.04800346      -0.21739098      -0.63066900       0.72624505      -0.69026101
H       17.04212534       6.60090009      12.61983933        1       0.13022335       0.34301221      -0.10792748       0.77775359      -0.20840506       0.81382477
H       16.47077791       8.00824580      12.29778007        1       0.04848605       0.22103598       0.06192806      -0.00587270      -0.48674476      -0.03627906
O       11.76410512       2.61372417       5.90473696        0      -0.27816753       0.06223418       0.76948380       1.36528087       1.15167975       0.07112123
H       11.23107459       1.89681018       5.59260364        1      -0.19212580       0.04196294       0.10966226      -1.11397123      -1.18162453       0.15750742
H       11.65244076       2.76050832       6.85350678        1      -0.08566920      -0.08181585      -0.06753309      -0.19657940      -0.51027030      -0.15559499
O        5.22190652       7.96226355      15.43664930        0       0.65503142       0.00746756       0.67187312      -0.85669768      -0.32399553       0.20108131
H        4.24473958       7.80442978      15.37255056        1      -0.18387586      -0.05403991      -0.27296670       1.01537657       0.11666755      -0.35507822
H        5.54634692       7.37633696      16.14998694        1       0.17545207       0.00376749      -0.25514490       0.09690471       0.09455967      -0.32279515
O        1.81069715       7.26543203      17.28191562        0      -0.59112003       1.87544845       0.13877798      -0.36048138      -0.05728004       0.20388319
H        1.59123596       8.11058903      17.67899571        1       0.02081278       0.15268895       0.01846380      -0.35945573       0.66438198      -0.25331387
H        2.54565058       6.94165726      17.81435654        1      -0.01130883       0.30595297       0.26045638       0.12773883      -0.58295131      -0.14342171
O       17.58975321       3.13418911      17.72806206        0       0.21389388      -0.67807981       0.03530406      -0.77957499      -0.35006869      -0.66629368
H       16.94173147       2.80386201      17.05988980        1       0.16747096      -0.09090225       0.01946079       0.68171132       0.23661444       0.35278797
H       17.02293900       3.61177195      18.37946917        1       0.09719659      -0.00212095      -0.04552901       0.54789817      -0.17265022       0.05072912
O        0.36023574      16.13869133       4.35208814        0       0.49005485       0.22087531      -0.90619587       0.46099275       0.91580266      -0.41485366
H        1.10117076      16.78874211       4.37660930        1      -0.13780664       0.25071313       0.02551370      -0.44899052      -0.31924117       0.13675919
H        0.41294183      15.70770192       5.20476461        1      -0.04604983       0.32158755       0.01160117       0.01677871      -0.09176876       0.32420796
O       17.44148244       4.52601830       3.53051850        0      -0.21963642       1.76293069      -0.54203558       1.22653806       0.07570626       2.64817405
H       17.33661173       4.63001412       2.60090038        1       0.16302288       0.06351373       0.16291626       0.06689022       0.19593117      -1.65976501
H       18.33732127       4.82354618       3.84376465        1      -0.07274797      -0.29513102       0.22609552      -1.17655265      -0.45354840      -1.00550807
O        0.36916286      14.05049445      17.35522566        0       0.81734049      -0.50865460      -0.34086183       1.64295387      -0.07462883       0.20281702
H        1.03721240      13.54221152      16.80321113        1      -0.11121737      -0.29497149      -0.15656963      -0.38473973       0.70667380       0.46846977
H        0.96992376      14.59795551      17.93500757        1      -0.03915942       0.35525283      -0.15996771      -1.03921330      -0.71501207      -0.60024250
O        4.25854733       6.32968162       8.57460064        0      -0.44045016       0.31460151      -0.13956853       0.12673765       0.92846042       0.09254678
H        4.20522526       5.37552309       8.66345674        1       0.11435173       0.06999237       0.14160710       0.07321697      -0.50990015       0.19256189
H        4.00408687       6.74935264       9.41252080        1       0.17342522       0.05736154      -0.19447258       0.17007941      -0.26153922      -0.06390064
O       15.96100834       6.17118710       5.35216247        0      -0.23837814       0.31050380       0.43428582       0.80773550      -0.20413969       0.32869142
H       16.45300668       5.74836137       4.63146509        1       0.21140557       0.06097563       0.10933817      -0.45309469      -0.35371965      -0.33143759
H       16.66298552       6.20366726       6.03540237        1      -0.02012417      -0.04157413      -0.03436736      -0.15549093       0.36001554       0.19510204
O        7.47349837       3.59161110       1.70334314        0      -0.62654095      -0.00474975       0.26666580       0.92508590      -0.23574699      -1.69283593
H        8.11587897       3.79515788       0.96336682        1       0.30301253       0.04524678       0.12498755      -0.52279985       0.01947878       0.99052030
H        7.41574947       4.36236195       2.26826424        1       0.15126303      -0.31147185       0.39701932       0.03894778       0.68125105       0.45846263
O        6.97782442       6.67638563      17.38498550        0       0.05257744      -0.13443360      -0.33701592      -0.98088455       0.16578239       2.06751347
H        7.77592563       6.71153979      16.88340480        1      -0.19419701      -0.37628098      -0.05401801       1.17152882       0.13409698      -0.39912790
H        7.20210470       6.95408526      18.33077779        1       0.14821951       0.14484137      -0.02983679      -0.14627816      -0.39223009      -1.79666698
O       14.06386752      12.30889652      17.80762876        0       1.21470515      -0.93399457      -0.44534978      -0.68187076      -1.20029414      -0.22852309
H       14.70614091      12.37974392      18.53316314        1       0.03976013       0.16312631       0.23712792      -0.07225177       0.79743290       0.13173527
H       14.05654612      13.06467643      17.20367407        1      -0.18196573       0.02202316      -0.25377478       0.83897489       0.20512423      -0.09365098
O       10.99590027      14.37154631      12.14746412        0       0.39542769       1.17459246      -0.08670037      -0.44418085      -0.21608859      -0.65376586
H       11.77105559      14.19110635      12.68970568        1      -0.07220582       0.04744403      -0.09606017       0.45992327      -0.13264562       0.31884280
H       10.60630498      15.19121893      12.46733177        1       0.25078285       0.27998360       0.21973005      -0.37565231       0.44595695       0.40405142
O        1.58525764       4.24790621       1.54596951        0       2.01503918      -0.06893122       1.36358807       1.57264471       1.46873534       0.27392754
H        2.38776607       4.84652119       1.49519596        1      -0.16643181       0.04532974       0.27325195      -1.37637174      -1.16129541       0.01504056
H        1.62933561       3.87044962       2.44470252        1       0.03787866       0.04043464      -0.36416846      -0.09597434      -0.07691325      -0.07186839
O        5.98699425       3.68041829       9.75111134        0       0.85750739       0.53832494      -0.36780137       0.69413722      -0.54892814      -0.81518972
H        6.99685181       3.50681805       9.74317451        1       0.36679593       0.11745952      -0.01454181      -2.06316805      -0.05425393       0.06196645
H        5.54578299       2.97858731       9.20917676        1      -0.11383255      -0.05129449       0.16408544       0.98893142       0.80222660       0.67661643
O        9.34659752      15.98805078       9.26501558        0      -0.40621911      -0.22127192       0.80985633      -0.33082831      -1.06883514      -0.03200202
H        8.82439658      16.14575919      10.07637115        1       0.15876758       0.15008917      -0.11681251       0.03885368      -0.17358890      -0.38183886
H        9.02290772      15.12797021       8.87951926        1       0.16819372       0.00492453       0.17383881       0.10064578       1.09453690       0.54957592
O       14.54582479      16.57337943       9.86660172        0       0.17772809      -0.49444929       0.52190204      -0.37085736      -1.58641064       0.93684506
H       13.69824370      16.06038684       9.87158263        1      -0.11444927       0.20058162      -0.00917077       0.52554917       0.20839475      -0.20088905
H       14.34892158      17.36477562       9.40191772        1      -0.11978395       0.14454030       0.00401892      -0.37674826       1.54010177      -0.67259377
O        5.79663638       0.21374164       0.15404016        0       0.15275468       0.74608196       0.04120282      -1.50565386       0.77875257      -0.52177507
H        5.90391349       0.52730109      17.85918021        1      -0.01850807       0.00440771       0.14074481       0.20597368      -0.52908367       0.74840385
H        6.59147264      18.47291322       0.50627825        1       0.01527412      -0.03743116      -0.17886819       1.33333790      -0.36513850      -0.16304465
O        7.79668697      10.02469261      12.93060494        0       1.30707110       1.38112771      -0.02490124       0.63768089      -0.58461797       0.78387755
H        8.22421815       9.17697467      13.27114715        1      -0.02348049      -0.14541138       0.37287637      -0.54621881       0.90776372      -0.48382282
H        8.03735852      10.04000733      11.98860941        1      -0.05696838       0.41845933      -0.19522282      -0.08997838      -0.09071440      -0.11073020
O        7.36731973      16.66394579      11.60039685        0       0.07463847      -0.92672905      -0.66329224       0.15969057       1.19357800      -0.44081613
H        6.95832460      16.03018102      12.18551350        1       0.09974006      -0.13805443       0.06081805      -0.44892836      -0.23898403       0.20189247
H        6.84742183      17.50250379      11.65233852        1      -0.07677971       0.11339507      -0.11187068       0.27547315      -0.90817785      -0.12087634
O       16.63633502      15.57539363       8.25820554        0      -0.43488571      -0.10739861       0.10104991       0.14254358       0.09290379      -0.23771128
H       17.01774880      14.83394343       8.73738294        1      -0.29065579       0.28071423       0.20888199       0.34121832      -0.34006509      -0.07463497
H       15.91324954      15.85140156       8.83420352        1       0.22607024       0.03257482       0.02688600      -0.54301083       0.09646831       0.15915298
O        2.20346064       6.57227306       6.79505762        0       0.89570050      -0.94750369      -0.88132034      -1.09677005       0.36016852      -0.90487510
H        2.38469818       5.86583996       6.16519297        1      -0.03148866       0.37168158       0.27628312       0.05273747       0.16550246      -0.38838542
H        2.76306102       6.36346309       7.52992278        1       0.14538320      -0.08652015       0.04597098       0.95118618      -0.04060973       1.02587545
O       10.13806838       0.61953387       5.03262227        0       0.20155100       0.51713945       0.30803431       0.90797198      -0.43166497       0.44839352
H        9.69173791      18.55539541       5.51422359        1      -0.02189827      -0.27245704      -0.23638883      -0.16980261      -0.31757408       0.24056891
H        9.52116670       1.07863123       4.46285127        1      -0.11178962       0.12872221      -0.04050570      -0.48029637       0.18492131      -0.47552785
O        5.93626489      11.77773505       7.99953041        0      -0.50997725       0.13306767       0.14731986       0.95130765       1.06902945       0.86493111
H        5.18992514      11.22004524       7.81397056        1       0.08989730       0.06944673      -0.01740528      -0.82028168      -0.57519221       0.19121957
H        5.92890870      12.04914866       8.96243223        1      -0.18292138      -0.21784669      -0.16172358       0.04691387      -0.59423572      -1.16611075
O       11.55618693       1.61247765       1.51492531        0      -0.52907116      -1.60403101      -0.82709815      -0.27444243       1.34459567       0.33105522
H       10.69309731       1.63255567       1.04823110        1       0.06177460       0.16429029      -0.07478077       0.48806265      -0.18592472       0.21200758
H       11.59797124       2.50027946       1.96373263        1       0.04240640      -0.16077339       0.00036606       0.04800373      -0.76687193      -0.52160454
O        5.40658134      18.14228744      13.57593066        0      -0.69245054       0.28230313       0.89646055       1.23009324      -0.00648110       0.30140471
H        5.82546400       0.34891693      13.24289946        1      -0.20755110       0.05717930       0.03443550      -0.08164161      -1.67834985       0.79548091
H        6.06323907      17.46357936      13.99808765        1       0.23018731      -0.24217698       0.22728447      -1.07195950       1.40542710      -1.25622511
O       14.26500824       2.76401841      12.64533076        0      -0.99358698       0.24336733       0.07656237       2.70898938       0.52563119      -0.43885618
H       14.56091762       3.72201298      12.68332801        1      -0.05476874      -0.08824561       0.19796157      -0.74495709      -0.86456561       0.18439867
H       13.42431101       2.66685113      13.03970076        1       0.06706580      -0.05777701       0.11330886      -1.83987224       0.28958356       0.71768284
O       10.96044076      10.30231674      16.77635175        0       0.46689505      -0.24298250       0.54122833      -1.12861860       0.12127309       0.28656694
H       10.94394277      11.22218473      17.05396410        1      -0.22535868      -0.14721175      -0.18431331       0.78289849       0.71623707      -0.05572336
H       10.02955687      10.10653552      17.06027735        1      -0.12038899       0.08818326      -0.15317837       0.46604156      -0.58916700      -0.29291576
O        8.14996306       9.72330554      10.06453282        0       0.05493867      -0.46551233      -1.63488192      -0.12244138      -0.84397143       0.31967565
H        8.15109625      10.61408952       9.75285833        1       0.07780621       0.23357774       0.03186917      -0.07939297       1.10547686      -0.30621704
H        9.02355303       9.36796995       9.85041114        1      -0.10116116      -0.22624784       0.05544192       0.08322844      -0.34083813      -0.00698869
O        3.01541124      14.28616369       7.69275057        0       1.18412114       0.26794612       1.08153197       0.00800648       0.60597754       0.64027679
H        3.65362778      14.50563596       6.99046007        1       0.07643056       0.05946182      -0.00861481       0.28102404      -0.18688743       0.36192074
H        3.42109826      14.40872366       8.58748374        1      -0.00479495      -0.01266145       0.01214418       0.03938378      -0.45932424      -0.96379882
O        4.16096011       2.18128315      12.21522304        0      -1.01522093       0.41083029      -0.19307457       0.00048146      -0.28873920       0.37869897
H        4.68191686       1.69024923      11.55047825        1       0.11202724       0.08744582       0.12916323      -0.09028465       0.07370947      -0.18761577
H        3.39187458       2.56894131      11.77182639        1       0.05470863       0.08588979       0.08186176       0.05251747      -0.09643056      -0.34927195
O        4.54423108      17.59877807       2.74135720        0      -0.64999636      -0.40487298      -1.04086898      -0.77611303       0.06069233       0.10937458
H        3.55654483      17.50295176       2.67959894        1      -0.08294093      -0.08847212      -0.21111540       1.05760336       0.29353493      -0.09543113
H        4.86433173      17.91169710       1.88381014        1       0.02248948      -0.04884252      -0.20692918      -0.31611544       0.02313070      -0.09146510
O       11.22465902      13.33272707       7.33316357        0      -0.45303646       0.20232979      -0.81537787      -0.78462273      -1.70992899       0.98201120
H       11.83446107      12.57420389       7.20983616        1       0.13989032      -0.08047829      -0.00674721      -0.00836317       0.46843910      -0.08315521
H       11.63240074      14.09226002       6.93669946        1       0.04523794       0.24431699      -0.15062634       0.62841284       0.85843849      -0.93714857
O       11.70217774      13.33773403      17.29436839        0      -0.60116769      -0.02734182       0.57595699      -1.08307040       0.39102691      -0.61559677
H       11.16017917      13.86420189      17.90813613        1      -0.03468255       0.13175045      -0.10974609       0.51628035      -0.60704362       0.05136611
H       12.40603109      12.92591045      17.81220137        1      -0.04631703      -0.33674780       0.22618377       0.21428056      -0.07360933       0.47316787
O       11.61693962       2.71946824      12.44036267        0       0.72388428      -0.11545625      -0.62172644      -1.10102987       0.24177605       0.67090207
H       10.83831430       2.91305179      13.01237486        1      -0.08694669      -0.17156482       0.10831775       0.59121323      -0.06911836      -0.60087919
H       11.23948529       2.13567650      11.77495571        1      -0.14231387       0.44242003       0.18115453       0.11205473      -0.21707682      -0.12324701
O       17.73017673      18.28605935       8.84031024        0       0.50443465       0.30175612       0.73007798      -0.85621476      -1.78884482       0.07096219
H       17.96592843      18.62004153       9.70726898        1       0.09143037       0.01172226      -0.10768849       0.32689559       0.80482465       0.61509693
H       17.35720008      17.38549309       9.06214073        1       0.11297405       0.02115614       0.13455163       0.61265576       0.97484702      -0.77501237
O        5.64374752       0.98669117      16.06922012        0      -0.56736760       0.01233979       0.55232562       1.25518370      -0.64553267       0.16968121
H        5.99330221       0.17061158      15.64905408        1       0.20472302       0.14139077       0.05632334      -0.02327495       0.67454547       0.09486359
H        4.71145646       0.93069672      15.92267871        1       0.26726314      -0.12206258      -0.09283634      -1.14157200       0.04909580      -0.10809012
